(set-logic QF_S)
(declare-fun var0 () String)
(assert (str.in.re var0 (re.++ (re.union (re.* (str.to.re "000")) (re.union (str.to.re "11") (str.to.re "22"))) (re.++ (re.* (re.union (str.to.re "333") (str.to.re "44"))) (re.++ (re.+ (re.union (str.to.re "5") (str.to.re "66"))) (re.++ (re.* (re.+ (str.to.re "777"))) (re.++ (re.+ (re.+ (str.to.re "888"))) (re.++ (re.union (re.* (str.to.re "99")) (re.union (str.to.re "aaa") (str.to.re "b"))) (re.++ (re.union (re.union (str.to.re "c") (str.to.re "dd")) (re.union (str.to.re "e") (str.to.re "ff"))) (re.++ (re.* (re.union (str.to.re "ggg") (str.to.re "hh"))) (re.++ (re.union (re.* (str.to.re "iii")) (re.* (str.to.re "jj"))) (re.++ (re.union (re.union (str.to.re "k") (str.to.re "ll")) (re.+ (str.to.re "mm"))) (re.++ (re.union (re.union (str.to.re "nn") (str.to.re "oo")) (re.union (str.to.re "p") (str.to.re "q"))) (re.++ (re.+ (re.+ (str.to.re "rrr"))) (re.++ (re.+ (re.union (str.to.re "sss") (str.to.re "ttt"))) (re.++ (re.+ (re.* (str.to.re "u"))) (re.++ (re.* (re.* (str.to.re "vvv"))) (re.++ (re.* (re.+ (str.to.re "w"))) (re.++ (re.union (re.* (str.to.re "x")) (re.* (str.to.re "yy"))) (re.++ (re.* (re.union (str.to.re "zz") (str.to.re "AA"))) (re.++ (re.* (re.* (str.to.re "B"))) (re.++ (re.* (re.* (str.to.re "CC"))) (re.++ (re.+ (re.* (str.to.re "DD"))) (re.++ (re.union (re.union (str.to.re "EE") (str.to.re "FF")) (re.+ (str.to.re "GG"))) (re.++ (re.+ (re.union (str.to.re "HHH") (str.to.re "I"))) (re.++ (re.* (re.union (str.to.re "J") (str.to.re "KK"))) (re.++ (re.* (re.+ (str.to.re "LL"))) (re.++ (re.+ (re.union (str.to.re "MMM") (str.to.re "NN"))) (re.++ (re.* (re.union (str.to.re "OO") (str.to.re "PP"))) (re.++ (re.* (re.* (str.to.re "Q"))) (re.++ (re.* (re.union (str.to.re "RR") (str.to.re "SS"))) (re.++ (re.* (re.+ (str.to.re "TTT"))) (re.++ (re.union (re.+ (str.to.re "U")) (re.union (str.to.re "VV") (str.to.re "W"))) (re.++ (re.* (re.+ (str.to.re "XXX"))) (re.++ (re.* (re.* (str.to.re "YYY"))) (re.++ (re.+ (re.* (str.to.re "ZZ"))) (re.++ (re.+ (re.* (str.to.re "!!"))) (re.++ (re.* (re.+ (str.to.re """"))) (re.++ (re.+ (re.union (str.to.re "#") (str.to.re "$$"))) (re.++ (re.union (re.* (str.to.re "%")) (re.* (str.to.re "&&&"))) (re.++ (re.union (re.* (str.to.re "'''")) (re.* (str.to.re "((("))) (re.++ (re.union (re.+ (str.to.re ")")) (re.* (str.to.re "***"))) (re.++ (re.+ (re.+ (str.to.re "+++"))) (re.++ (re.* (re.* (str.to.re ",,"))) (re.++ (re.* (re.* (str.to.re "---"))) (re.++ (re.+ (re.union (str.to.re "..") (str.to.re "///"))) (re.++ (re.+ (re.+ (str.to.re ":::"))) (re.++ (re.+ (re.+ (str.to.re ";;"))) (re.++ (re.* (re.+ (str.to.re "<<<"))) (re.++ (re.* (re.* (str.to.re "==="))) (re.++ (re.union (re.* (str.to.re ">>>")) (re.+ (str.to.re "??"))) (re.++ (re.union (re.union (str.to.re "@@@") (str.to.re "[")) (re.* (str.to.re "\\\\\\"))) (re.++ (re.union (re.union (str.to.re "]]") (str.to.re "^^^")) (re.union (str.to.re "__") (str.to.re "```"))) (re.++ (re.+ (re.union (str.to.re "{{") (str.to.re "||"))) (re.* (re.+ (str.to.re "}}")))))))))))))))))))))))))))))))))))))))))))))))))))))))))
(check-sat)